param n := 20
;

param delta := 1.5
;

param coordX [*] :=
0   86
1   37
2   87
3   72
4   65
5   30
6   22
7    0
8   99
9   57
10  62
11  48
12  42
13  95
14  88
15   8
16  12
17  33
18  97
19  62
20  28
;

param coordY [*] :=
0   99
1   56
2   84
3   26
4   19
5   17
6   75
7   14
8   46
9   24
10   7
11  98
12  78
13  30
14  99
15  50
16  15
17  70
18  84
19  87
20   6
;
